2	25
843	289	767	130	928	19	82	737	652	958	168	385	729	207	395	485	878	362	520	74	618	50	824	283	801	
378	275	192	299	803	65	443	330	14	763	411	95	403	207	933	8	148	596	937	884	674	600	566	715	361	
4163	4163	
